presolving:
(round 1, fast)       333 del vars, 366 del conss, 0 add conss, 36 chg bounds, 297 chg sides, 0 chg coeffs, 0 upgd conss, 0 impls, 16389 clqs
   (0.1s) running MILP presolver
   (0.1s) MILP presolver found nothing
(round 2, exhaustive) 333 del vars, 366 del conss, 0 add conss, 36 chg bounds, 297 chg sides, 0 chg coeffs, 16392 upgd conss, 0 impls, 16389 clqs
(round 3, medium)     333 del vars, 660 del conss, 294 add conss, 36 chg bounds, 669 chg sides, 666 chg coeffs, 16392 upgd conss, 0 impls, 16389 clqs
   (0.4s) probing: 51/8136 (0.6%) - 0 fixings, 0 aggregations, 0 implications, 0 bound changes
   (0.4s) probing aborted: 50/50 successive totally useless probings
   (0.4s) symmetry computation started: requiring (bin +, int -, cont +), (fixed: bin -, int +, cont -)
   (0.4s) no symmetry present
presolving (4 rounds: 4 fast, 3 medium, 2 exhaustive):
 333 deleted vars, 663 deleted constraints, 294 added constraints, 36 tightened bounds, 0 added holes, 669 changed sides, 666 changed coefficients
 0 implications, 16389 cliques
presolved problem has 8136 variables (8136 bin, 0 int, 0 impl, 0 cont) and 16389 constraints
  16389 constraints of type <setppc>
Presolving Time: 0.41

 time | node  | left  |LP iter|LP it/n|mem/heur|mdpt |vars |cons |rows |cuts |sepa|confs|strbr|  dualbound   | primalbound  |  gap   | compl. 
p 0.5s|     1 |     0 |     0 |     - |  clique|   0 |8136 |  16k|  16k|   0 |  0 |   0 |   0 | 0.000000e+00 |-6.490331e+04 |    Inf | unknown
  0.9s|     1 |     0 |   788 |     - |   109M |   0 |8136 |  16k|  16k|   0 |  0 |  22 |   0 |-5.689056e+04 |-6.490331e+04 |  14.08%| unknown
  2.9s|     1 |     0 |   841 |     - |   112M |   0 |8136 |  16k|  16k|   8 |  1 |  22 |   0 |-5.712876e+04 |-6.490331e+04 |  13.61%| unknown
  5.2s|     1 |     0 |   906 |     - |   115M |   0 |8136 |  16k|  16k|  19 |  2 |  22 |   0 |-5.727634e+04 |-6.490331e+04 |  13.32%| unknown
  8.7s|     1 |     0 |   982 |     - |   119M |   0 |8136 |  16k|  16k|  31 |  3 |  22 |   0 |-5.736065e+04 |-6.490331e+04 |  13.15%| unknown
 12.8s|     1 |     0 |  1025 |     - |   125M |   0 |8136 |  16k|  16k|  36 |  4 |  22 |   0 |-5.740375e+04 |-6.490331e+04 |  13.06%| unknown
 17.2s|     1 |     0 |  1080 |     - |   131M |   0 |8136 |  16k|  16k|  43 |  5 |  22 |   0 |-5.745398e+04 |-6.490331e+04 |  12.97%| unknown
 19.4s|     1 |     0 |  1153 |     - |   135M |   0 |8136 |  16k|  16k|  50 |  6 |  22 |   0 |-5.747755e+04 |-6.490331e+04 |  12.92%| unknown
 22.5s|     1 |     0 |  1199 |     - |   140M |   0 |8136 |  16k|  16k|  54 |  7 |  22 |   0 |-5.749606e+04 |-6.490331e+04 |  12.88%| unknown
 29.3s|     1 |     0 |  1246 |     - |   148M |   0 |8136 |  16k|  16k|  62 |  8 |  22 |   0 |-5.752352e+04 |-6.490331e+04 |  12.83%| unknown
 30.5s|     1 |     0 |  1261 |     - |   150M |   0 |8136 |  16k|  16k|  65 |  9 |  22 |   0 |-5.753400e+04 |-6.490331e+04 |  12.81%| unknown
 32.4s|     1 |     0 |  1306 |     - |   152M |   0 |8136 |  16k|  16k|  69 | 10 |  22 |   0 |-5.754550e+04 |-6.490331e+04 |  12.79%| unknown
 32.6s|     1 |     0 |  1359 |     - |   154M |   0 |8136 |  16k|  16k|  72 | 11 |  22 |   0 |-5.756804e+04 |-6.490331e+04 |  12.74%| unknown
 32.8s|     1 |     0 |  1374 |     - |   155M |   0 |8136 |  16k|  16k|  76 | 12 |  22 |   0 |-5.757107e+04 |-6.490331e+04 |  12.74%| unknown
 33.0s|     1 |     0 |  1421 |     - |   157M |   0 |8136 |  16k|  16k|  84 | 13 |  22 |   0 |-5.759261e+04 |-6.490331e+04 |  12.69%| unknown
 time | node  | left  |LP iter|LP it/n|mem/heur|mdpt |vars |cons |rows |cuts |sepa|confs|strbr|  dualbound   | primalbound  |  gap   | compl. 
 33.1s|     1 |     0 |  1448 |     - |   159M |   0 |8136 |  16k|  16k|  86 | 14 |  22 |   0 |-5.759635e+04 |-6.490331e+04 |  12.69%| unknown
 33.3s|     1 |     0 |  1506 |     - |   161M |   0 |8136 |  16k|  16k|  89 | 15 |  22 |   0 |-5.760774e+04 |-6.490331e+04 |  12.66%| unknown
 33.5s|     1 |     0 |  1546 |     - |   162M |   0 |8136 |  16k|  16k|  92 | 16 |  22 |   0 |-5.761447e+04 |-6.490331e+04 |  12.65%| unknown
 33.7s|     1 |     0 |  1584 |     - |   164M |   0 |8136 |  16k|  16k|  94 | 17 |  22 |   0 |-5.761920e+04 |-6.490331e+04 |  12.64%| unknown
 33.9s|     1 |     0 |  1616 |     - |   164M |   0 |8136 |  16k|  16k|  96 | 19 |  22 |   0 |-5.762290e+04 |-6.490331e+04 |  12.63%| unknown
 34.1s|     1 |     0 |  1662 |     - |   166M |   0 |8136 |  16k|  16k|  98 | 20 |  22 |   0 |-5.762794e+04 |-6.490331e+04 |  12.62%| unknown
 34.3s|     1 |     0 |  1692 |     - |   168M |   0 |8136 |  16k|  16k| 100 | 21 |  22 |   0 |-5.763072e+04 |-6.490331e+04 |  12.62%| unknown
 34.4s|     1 |     0 |  1698 |     - |   168M |   0 |8136 |  16k|  16k| 101 | 22 |  22 |   0 |-5.763083e+04 |-6.490331e+04 |  12.62%| unknown
d34.8s|     1 |     0 |  2136 |     - |farkasdi|   0 |8136 |  16k|  16k|   0 | 24 |  22 |   0 |-5.763083e+04 |-5.880791e+04 |   2.04%| unknown
d35.1s|     1 |     0 |  2958 |     - |conflict|   0 |8136 |  16k|  16k|   0 | 24 |  24 |   0 |-5.763083e+04 |-5.821375e+04 |   1.01%| unknown
 35.9s|     1 |     0 |  2958 |     - |   170M |   0 |8136 |  16k|  16k| 101 | 24 |  24 |   0 |-5.763083e+04 |-5.821375e+04 |   1.01%| unknown
 35.9s|     1 |     0 |  2958 |     - |   171M |   0 |8136 |  16k|3595 | 101 | 24 |  24 |   0 |-5.763083e+04 |-5.821375e+04 |   1.01%| unknown
(run 1, node 1) restarting after 5611 global fixings of integer variables

(restart) converted 96 cuts from the global cut pool into linear constraints

presolving:
(round 1, fast)       5611 del vars, 2 del conss, 0 add conss, 0 chg bounds, 0 chg sides, 161 chg coeffs, 0 upgd conss, 0 impls, 3528 clqs
   (36.1s) running MILP presolver
   (36.1s) MILP presolver found nothing
(round 2, exhaustive) 5611 del vars, 2 del conss, 0 add conss, 0 chg bounds, 0 chg sides, 161 chg coeffs, 96 upgd conss, 0 impls, 3528 clqs
(round 3, exhaustive) 5611 del vars, 22 del conss, 0 add conss, 0 chg bounds, 0 chg sides, 161 chg coeffs, 96 upgd conss, 0 impls, 3528 clqs
presolving (4 rounds: 4 fast, 3 medium, 3 exhaustive):
 5611 deleted vars, 22 deleted constraints, 0 added constraints, 0 tightened bounds, 0 added holes, 0 changed sides, 161 changed coefficients
 0 implications, 3528 cliques
presolved problem has 2525 variables (2525 bin, 0 int, 0 impl, 0 cont) and 3597 constraints
     67 constraints of type <knapsack>
   3528 constraints of type <setppc>
      2 constraints of type <logicor>
Presolving Time: 0.48
transformed 4/5 original solutions to the transformed problem space

 time | node  | left  |LP iter|LP it/n|mem/heur|mdpt |vars |cons |rows |cuts |sepa|confs|strbr|  dualbound   | primalbound  |  gap   | compl. 
 36.5s|     1 |     0 |  4626 |     - |   172M |   0 |2525 |3597 |3595 |   0 |  0 |  24 |   0 |-5.763083e+04 |-5.821375e+04 |   1.01%| unknown
 36.5s|     1 |     0 |  4626 |     - |   172M |   0 |2525 |3597 |3592 |   0 |  0 |  24 |   0 |-5.763083e+04 |-5.821375e+04 |   1.01%| unknown
 37.3s|     1 |     0 |  4689 |     - |   173M |   0 |2525 |3594 |3597 |   5 |  1 |  24 |   0 |-5.764369e+04 |-5.821375e+04 |   0.99%| unknown
 37.3s|     1 |     0 |  4689 |     - |   173M |   0 |2525 |3594 |3534 |   5 |  1 |  24 |   0 |-5.764369e+04 |-5.821375e+04 |   0.99%| unknown
 37.6s|     1 |     0 |  4778 |     - |   174M |   0 |2525 |3531 |3538 |   9 |  2 |  24 |   0 |-5.765690e+04 |-5.821375e+04 |   0.97%| unknown
 37.6s|     1 |     0 |  4778 |     - |   174M |   0 |2525 |3531 |3488 |   9 |  2 |  24 |   0 |-5.765690e+04 |-5.821375e+04 |   0.97%| unknown
 38.7s|     1 |     0 |  4825 |     - |   174M |   0 |2525 |3481 |3493 |  14 |  3 |  24 |   0 |-5.766371e+04 |-5.821375e+04 |   0.95%| unknown
 38.7s|     1 |     0 |  4825 |     - |   174M |   0 |2525 |3481 |3466 |  14 |  3 |  24 |   0 |-5.766371e+04 |-5.821375e+04 |   0.95%| unknown
 39.5s|     1 |     0 |  4907 |     - |   178M |   0 |2525 |3454 |3472 |  20 |  4 |  24 |   0 |-5.767889e+04 |-5.821375e+04 |   0.93%| unknown
 39.6s|     1 |     0 |  4907 |     - |   178M |   0 |2525 |3454 |3408 |  20 |  4 |  24 |   0 |-5.767889e+04 |-5.821375e+04 |   0.93%| unknown
 40.3s|     1 |     0 |  5000 |     - |   180M |   0 |2525 |3390 |3410 |  22 |  5 |  24 |   0 |-5.769704e+04 |-5.821375e+04 |   0.90%| unknown
 40.4s|     1 |     0 |  5000 |     - |   180M |   0 |2525 |3390 |3325 |  22 |  5 |  24 |   0 |-5.769704e+04 |-5.821375e+04 |   0.90%| unknown
 41.0s|     1 |     0 |  5017 |     - |   181M |   0 |2525 |3305 |3327 |  24 |  6 |  24 |   0 |-5.769813e+04 |-5.821375e+04 |   0.89%| unknown
 41.1s|     1 |     0 |  5017 |     - |   181M |   0 |2525 |3305 |3323 |  24 |  6 |  24 |   0 |-5.769813e+04 |-5.821375e+04 |   0.89%| unknown
 41.8s|     1 |     0 |  5069 |     - |   186M |   0 |2525 |3301 |3325 |  26 |  7 |  24 |   0 |-5.770247e+04 |-5.821375e+04 |   0.89%| unknown
 time | node  | left  |LP iter|LP it/n|mem/heur|mdpt |vars |cons |rows |cuts |sepa|confs|strbr|  dualbound   | primalbound  |  gap   | compl. 
 41.8s|     1 |     0 |  5069 |     - |   186M |   0 |2525 |3301 |3301 |  26 |  7 |  24 |   0 |-5.770247e+04 |-5.821375e+04 |   0.89%| unknown
 42.4s|     1 |     0 |  5179 |     - |   190M |   0 |2525 |3277 |3304 |  29 |  8 |  24 |   0 |-5.771277e+04 |-5.821375e+04 |   0.87%| unknown
 42.4s|     1 |     0 |  5179 |     - |   190M |   0 |2525 |3277 |3247 |  29 |  8 |  24 |   0 |-5.771277e+04 |-5.821375e+04 |   0.87%| unknown
 43.4s|     1 |     0 |  5256 |     - |   196M |   0 |2525 |3220 |3249 |  31 |  9 |  24 |   0 |-5.771679e+04 |-5.821375e+04 |   0.86%| unknown
 43.4s|     1 |     0 |  5256 |     - |   196M |   0 |2525 |3220 |3226 |  31 |  9 |  24 |   0 |-5.771679e+04 |-5.821375e+04 |   0.86%| unknown
 44.1s|     1 |     0 |  5322 |     - |   201M |   0 |2525 |3197 |3230 |  35 | 10 |  24 |   0 |-5.771958e+04 |-5.821375e+04 |   0.86%| unknown
 44.1s|     1 |     0 |  5322 |     - |   201M |   0 |2525 |3197 |3221 |  35 | 10 |  24 |   0 |-5.771958e+04 |-5.821375e+04 |   0.86%| unknown
 44.2s|     1 |     0 |  5373 |     - |   201M |   0 |2525 |3188 |3223 |  37 | 11 |  24 |   0 |-5.772175e+04 |-5.821375e+04 |   0.85%| unknown
 44.2s|     1 |     0 |  5373 |     - |   201M |   0 |2525 |3188 |3202 |  37 | 11 |  24 |   0 |-5.772175e+04 |-5.821375e+04 |   0.85%| unknown
 44.4s|     1 |     0 |  5408 |     - |   202M |   0 |2525 |3167 |3187 |  38 | 12 |  24 |   0 |-5.772298e+04 |-5.821375e+04 |   0.85%| unknown
 44.4s|     1 |     0 |  5408 |     - |   202M |   0 |2525 |3167 |3179 |  38 | 12 |  24 |   0 |-5.772298e+04 |-5.821375e+04 |   0.85%| unknown
(run 2, node 1) restarting after 278 global fixings of integer variables

(restart) converted 36 cuts from the global cut pool into linear constraints

presolving:
(round 1, fast)       278 del vars, 0 del conss, 0 add conss, 0 chg bounds, 0 chg sides, 0 chg coeffs, 0 upgd conss, 0 impls, 3093 clqs
(round 2, exhaustive) 278 del vars, 0 del conss, 0 add conss, 0 chg bounds, 0 chg sides, 0 chg coeffs, 33 upgd conss, 0 impls, 3093 clqs
(round 3, exhaustive) 278 del vars, 92 del conss, 0 add conss, 0 chg bounds, 0 chg sides, 0 chg coeffs, 33 upgd conss, 0 impls, 3093 clqs
presolving (4 rounds: 4 fast, 3 medium, 3 exhaustive):
 278 deleted vars, 92 deleted constraints, 0 added constraints, 0 tightened bounds, 0 added holes, 0 changed sides, 0 changed coefficients
 0 implications, 3093 cliques
presolved problem has 2247 variables (2247 bin, 0 int, 0 impl, 0 cont) and 3108 constraints
     97 constraints of type <knapsack>
   3001 constraints of type <setppc>
      3 constraints of type <linear>
      7 constraints of type <logicor>
Presolving Time: 0.58
transformed 5/6 original solutions to the transformed problem space

 time | node  | left  |LP iter|LP it/n|mem/heur|mdpt |vars |cons |rows |cuts |sepa|confs|strbr|  dualbound   | primalbound  |  gap   | compl. 
 45.9s|     1 |     0 |  8703 |     - |   189M |   0 |2247 |3108 |3101 |   0 |  0 |  29 |   0 |-5.772298e+04 |-5.821375e+04 |   0.85%| unknown
 47.0s|     1 |     0 |  8780 |     - |   189M |   0 |2247 |3108 |3102 |   1 |  1 |  29 |   0 |-5.772577e+04 |-5.821375e+04 |   0.85%| unknown
 47.0s|     1 |     0 |  8780 |     - |   189M |   0 |2247 |3108 |3093 |   1 |  1 |  29 |   0 |-5.772577e+04 |-5.821375e+04 |   0.85%| unknown
 48.2s|     1 |     0 |  8833 |     - |   193M |   0 |2247 |3099 |3095 |   3 |  2 |  29 |   0 |-5.772664e+04 |-5.821375e+04 |   0.84%| unknown
 48.2s|     1 |     0 |  8833 |     - |   193M |   0 |2247 |3099 |3091 |   3 |  2 |  29 |   0 |-5.772664e+04 |-5.821375e+04 |   0.84%| unknown
 49.3s|     1 |     0 |  8920 |     - |   200M |   0 |2247 |3095 |3093 |   5 |  3 |  29 |   0 |-5.772839e+04 |-5.821375e+04 |   0.84%| unknown
 49.3s|     1 |     0 |  8920 |     - |   200M |   0 |2247 |3095 |3078 |   5 |  3 |  29 |   0 |-5.772839e+04 |-5.821375e+04 |   0.84%| unknown
 50.4s|     1 |     0 |  8945 |     - |   206M |   0 |2247 |3080 |3081 |   8 |  4 |  29 |   0 |-5.772887e+04 |-5.821375e+04 |   0.84%| unknown
 50.4s|     1 |     0 |  8945 |     - |   206M |   0 |2247 |3080 |3073 |   8 |  4 |  29 |   0 |-5.772887e+04 |-5.821375e+04 |   0.84%| unknown
 51.5s|     1 |     0 |  9074 |     - |   211M |   0 |2247 |3072 |3075 |  10 |  5 |  29 |   0 |-5.773956e+04 |-5.821375e+04 |   0.82%| unknown
 51.5s|     1 |     0 |  9074 |     - |   211M |   0 |2247 |3072 |3023 |  10 |  5 |  29 |   0 |-5.773956e+04 |-5.821375e+04 |   0.82%| unknown
 52.7s|     1 |     0 |  9151 |     - |   218M |   0 |2247 |3020 |3024 |  11 |  6 |  29 |   0 |-5.774550e+04 |-5.821375e+04 |   0.81%| unknown
 52.8s|     1 |     0 |  9151 |     - |   218M |   0 |2247 |3020 |2993 |  11 |  6 |  29 |   0 |-5.774550e+04 |-5.821375e+04 |   0.81%| unknown
 53.6s|     1 |     0 |  9250 |     - |   221M |   0 |2247 |2989 |2997 |  15 |  7 |  29 |   0 |-5.775223e+04 |-5.821375e+04 |   0.80%| unknown
 53.6s|     1 |     0 |  9250 |     - |   221M |   0 |2247 |2989 |2958 |  15 |  7 |  29 |   0 |-5.775223e+04 |-5.821375e+04 |   0.80%| unknown
 time | node  | left  |LP iter|LP it/n|mem/heur|mdpt |vars |cons |rows |cuts |sepa|confs|strbr|  dualbound   | primalbound  |  gap   | compl. 
 54.6s|     1 |     0 |  9307 |     - |   228M |   0 |2247 |2950 |2959 |  16 |  8 |  29 |   0 |-5.775354e+04 |-5.821375e+04 |   0.80%| unknown
 54.6s|     1 |     0 |  9307 |     - |   228M |   0 |2247 |2950 |2949 |  16 |  8 |  29 |   0 |-5.775354e+04 |-5.821375e+04 |   0.80%| unknown
 55.0s|     1 |     0 |  9358 |     - |   228M |   0 |2247 |2940 |2953 |  20 |  9 |  29 |   0 |-5.775475e+04 |-5.821375e+04 |   0.79%| unknown
 55.0s|     1 |     0 |  9358 |     - |   228M |   0 |2247 |2940 |2951 |  20 |  9 |  29 |   0 |-5.775475e+04 |-5.821375e+04 |   0.79%| unknown
 55.5s|     1 |     0 |  9395 |     - |   229M |   0 |2247 |2938 |2953 |  22 | 10 |  29 |   0 |-5.775518e+04 |-5.821375e+04 |   0.79%| unknown
 55.5s|     1 |     0 |  9395 |     - |   229M |   0 |2247 |2938 |2950 |  22 | 10 |  29 |   0 |-5.775518e+04 |-5.821375e+04 |   0.79%| unknown
 55.7s|     1 |     0 |  9457 |     - |   229M |   0 |2247 |2935 |2929 |  25 | 11 |  29 |   0 |-5.775900e+04 |-5.821375e+04 |   0.79%| unknown
 55.8s|     1 |     0 |  9457 |     - |   229M |   0 |2247 |2935 |2911 |  25 | 11 |  29 |   0 |-5.775900e+04 |-5.821375e+04 |   0.79%| unknown
 56.0s|     1 |     0 |  9487 |     - |   229M |   0 |2247 |2917 |2913 |  27 | 12 |  29 |   0 |-5.776094e+04 |-5.821375e+04 |   0.78%| unknown
 56.0s|     1 |     0 |  9487 |     - |   229M |   0 |2247 |2917 |2895 |  27 | 12 |  29 |   0 |-5.776094e+04 |-5.821375e+04 |   0.78%| unknown
 56.2s|     1 |     0 |  9529 |     - |   230M |   0 |2247 |2899 |2896 |  28 | 13 |  29 |   0 |-5.776231e+04 |-5.821375e+04 |   0.78%| unknown
 56.2s|     1 |     0 |  9529 |     - |   230M |   0 |2247 |2899 |2887 |  28 | 13 |  29 |   0 |-5.776231e+04 |-5.821375e+04 |   0.78%| unknown
 56.4s|     1 |     0 |  9562 |     - |   230M |   0 |2247 |2890 |2888 |  29 | 14 |  29 |   0 |-5.776405e+04 |-5.821375e+04 |   0.78%| unknown
 56.4s|     1 |     0 |  9562 |     - |   230M |   0 |2247 |2890 |2879 |  29 | 14 |  29 |   0 |-5.776405e+04 |-5.821375e+04 |   0.78%| unknown
 56.6s|     1 |     0 |  9595 |     - |   230M |   0 |2247 |2881 |2880 |  30 | 15 |  29 |   0 |-5.776495e+04 |-5.821375e+04 |   0.78%| unknown
 time | node  | left  |LP iter|LP it/n|mem/heur|mdpt |vars |cons |rows |cuts |sepa|confs|strbr|  dualbound   | primalbound  |  gap   | compl. 
 56.6s|     1 |     0 |  9595 |     - |   230M |   0 |2247 |2881 |2870 |  30 | 15 |  29 |   0 |-5.776495e+04 |-5.821375e+04 |   0.78%| unknown
 56.8s|     1 |     0 |  9662 |     - |   231M |   0 |2247 |2871 |2872 |  32 | 16 |  29 |   0 |-5.776747e+04 |-5.821375e+04 |   0.77%| unknown
 56.9s|     1 |     0 |  9662 |     - |   231M |   0 |2247 |2871 |2857 |  32 | 16 |  29 |   0 |-5.776747e+04 |-5.821375e+04 |   0.77%| unknown
L58.0s|     1 |     0 | 11578 |     - |    rens|   0 |2247 |2866 |2857 |  32 | 17 |  39 |   0 |-5.776747e+04 |-5.812374e+04 |   0.62%| unknown
 58.0s|     1 |     0 | 11578 |     - |   232M |   0 |2247 |2866 |2857 |  32 | 17 |  39 |   0 |-5.776747e+04 |-5.812374e+04 |   0.62%| unknown
 58.0s|     1 |     0 | 11578 |     - |   232M |   0 |2247 |2866 |2409 |  32 | 17 |  39 |   0 |-5.776747e+04 |-5.812374e+04 |   0.62%| unknown
 58.2s|     1 |     0 | 11724 |     - |   232M |   0 |2247 |2418 |2411 |  34 | 18 |  39 |   0 |-5.777123e+04 |-5.812374e+04 |   0.61%| unknown
 58.2s|     1 |     0 | 11724 |     - |   232M |   0 |2247 |2418 |2388 |  34 | 18 |  39 |   0 |-5.777123e+04 |-5.812374e+04 |   0.61%| unknown
 58.2s|     1 |     0 | 11751 |     - |   232M |   0 |2247 |2418 |2389 |  35 | 19 |  39 |   0 |-5.777162e+04 |-5.812374e+04 |   0.61%| unknown
 58.3s|     1 |     0 | 11751 |     - |   232M |   0 |2247 |2418 |2387 |  35 | 19 |  39 |   0 |-5.777162e+04 |-5.812374e+04 |   0.61%| unknown
(run 3, node 1) restarting after 468 global fixings of integer variables

(restart) converted 35 cuts from the global cut pool into linear constraints

presolving:
(round 1, fast)       468 del vars, 0 del conss, 0 add conss, 0 chg bounds, 0 chg sides, 0 chg coeffs, 0 upgd conss, 0 impls, 2370 clqs
   (58.3s) running MILP presolver
   (58.3s) MILP presolver found nothing
(round 2, exhaustive) 468 del vars, 0 del conss, 0 add conss, 0 chg bounds, 0 chg sides, 0 chg coeffs, 27 upgd conss, 0 impls, 2370 clqs
(round 3, exhaustive) 468 del vars, 6 del conss, 0 add conss, 0 chg bounds, 0 chg sides, 0 chg coeffs, 27 upgd conss, 0 impls, 2370 clqs
presolving (4 rounds: 4 fast, 3 medium, 3 exhaustive):
 468 deleted vars, 7 deleted constraints, 0 added constraints, 0 tightened bounds, 0 added holes, 0 changed sides, 5 changed coefficients
 0 implications, 2370 cliques
presolved problem has 1779 variables (1779 bin, 0 int, 0 impl, 0 cont) and 2421 constraints
    122 constraints of type <knapsack>
   2272 constraints of type <setppc>
     11 constraints of type <linear>
     16 constraints of type <logicor>
Presolving Time: 0.64
transformed 6/7 original solutions to the transformed problem space

 time | node  | left  |LP iter|LP it/n|mem/heur|mdpt |vars |cons |rows |cuts |sepa|confs|strbr|  dualbound   | primalbound  |  gap   | compl. 
 58.7s|     1 |     0 | 14057 |     - |   211M |   0 |1779 |2421 |2405 |   0 |  0 |  39 |   0 |-5.777162e+04 |-5.812374e+04 |   0.61%| unknown
 59.6s|     1 |     0 | 14146 |     - |   211M |   0 |1779 |2421 |2406 |   1 |  1 |  39 |   0 |-5.777531e+04 |-5.812374e+04 |   0.60%| unknown
 59.6s|     1 |     0 | 14146 |     - |   211M |   0 |1779 |2421 |2396 |   1 |  1 |  39 |   0 |-5.777531e+04 |-5.812374e+04 |   0.60%| unknown
 60.4s|     1 |     0 | 14219 |     - |   215M |   0 |1779 |2411 |2397 |   2 |  2 |  39 |   0 |-5.777682e+04 |-5.812374e+04 |   0.60%| unknown
 60.4s|     1 |     0 | 14219 |     - |   215M |   0 |1779 |2411 |2393 |   2 |  2 |  39 |   0 |-5.777682e+04 |-5.812374e+04 |   0.60%| unknown
 61.3s|     1 |     0 | 14290 |     - |   217M |   0 |1779 |2407 |2394 |   3 |  3 |  39 |   0 |-5.777855e+04 |-5.812374e+04 |   0.60%| unknown
 61.3s|     1 |     0 | 14290 |     - |   217M |   0 |1779 |2407 |2388 |   3 |  3 |  39 |   0 |-5.777855e+04 |-5.812374e+04 |   0.60%| unknown
 62.2s|     1 |     0 | 14356 |     - |   219M |   0 |1779 |2401 |2390 |   5 |  4 |  39 |   0 |-5.777942e+04 |-5.812374e+04 |   0.60%| unknown
 62.2s|     1 |     0 | 14356 |     - |   219M |   0 |1779 |2401 |2388 |   5 |  4 |  39 |   0 |-5.777942e+04 |-5.812374e+04 |   0.60%| unknown
 63.2s|     1 |     0 | 14419 |     - |   221M |   0 |1779 |2399 |2389 |   6 |  5 |  39 |   0 |-5.778030e+04 |-5.812374e+04 |   0.59%| unknown
 63.2s|     1 |     0 | 14419 |     - |   221M |   0 |1779 |2399 |2388 |   6 |  5 |  39 |   0 |-5.778030e+04 |-5.812374e+04 |   0.59%| unknown
 64.2s|     1 |     0 | 14459 |     - |   224M |   0 |1779 |2398 |2389 |   7 |  6 |  39 |   0 |-5.778057e+04 |-5.812374e+04 |   0.59%| unknown
 64.2s|     1 |     0 | 14459 |     - |   224M |   0 |1779 |2398 |2388 |   7 |  6 |  39 |   0 |-5.778057e+04 |-5.812374e+04 |   0.59%| unknown
 65.3s|     1 |     0 | 14483 |     - |   229M |   0 |1779 |2397 |2389 |   8 |  7 |  39 |   0 |-5.778065e+04 |-5.812374e+04 |   0.59%| unknown
 66.2s|     1 |     0 | 14534 |     - |   234M |   0 |1779 |2397 |2391 |  10 |  8 |  39 |   0 |-5.778097e+04 |-5.812374e+04 |   0.59%| unknown
 time | node  | left  |LP iter|LP it/n|mem/heur|mdpt |vars |cons |rows |cuts |sepa|confs|strbr|  dualbound   | primalbound  |  gap   | compl. 
 67.2s|     1 |     0 | 14596 |     - |   241M |   0 |1779 |2397 |2392 |  11 |  9 |  39 |   0 |-5.778119e+04 |-5.812374e+04 |   0.59%| unknown
 68.3s|     1 |     0 | 14690 |     - |   246M |   0 |1779 |2397 |2393 |  12 | 10 |  39 |   0 |-5.778283e+04 |-5.812374e+04 |   0.59%| unknown
 68.4s|     1 |     0 | 14690 |     - |   247M |   0 |1779 |2397 |2387 |  12 | 10 |  39 |   0 |-5.778283e+04 |-5.812374e+04 |   0.59%| unknown
 68.7s|     1 |     0 | 14781 |     - |   247M |   0 |1779 |2391 |2389 |  14 | 11 |  39 |   0 |-5.778339e+04 |-5.812374e+04 |   0.59%| unknown
 72.2s|     1 |     2 | 17676 |     - |   247M |   0 |1779 |2402 |2389 |  14 | 11 |  50 |  22 |-5.784037e+04 |-5.812374e+04 |   0.49%| unknown
*75.7s|     5 |     2 | 18511 |1218.9 |strongbr|   3 |1779 |2408 |2331 |  14 |  2 |  56 | 157 |-5.797055e+04 |-5.810601e+04 |   0.23%|  23.93%
*75.9s|     6 |     1 | 18762 |1097.9 |strongbr|   3 |1779 |2409 |2331 |  14 |  2 |  57 | 166 |-5.797055e+04 |-5.804025e+04 |   0.12%|  28.52%

SCIP Status        : problem is solved [optimal solution found]
Solving Time (sec) : 76.00
Solving Nodes      : 7 (total of 10 nodes in 4 runs)
Primal Bound       : -5.80402522397848e+04 (10 solutions)
Dual Bound         : -5.80402522397848e+04
Gap                : 0.00 %
Solve Status: optimal
Solve Time: 76.00 seconds
Objective Value: -58040.25
